NAME          BLANK   
ROWS
 N  OBJROW
 L  R0000000
COLUMNS
    C0000000  OBJROW     -529.         R0000000  414.        
    C0000001  OBJROW     -432.         R0000000  156.        
    C0000002  OBJROW     -985.         R0000000  86.         
    C0000003  OBJROW     -114.         R0000000  541.        
    C0000004  OBJROW     -287.         R0000000  58.         
    C0000005  OBJROW     -217.         R0000000  70.         
    C0000006  OBJROW     -307.         R0000000  400.        
    C0000007  OBJROW     -258.         R0000000  725.        
    C0000008  OBJROW     -269.         R0000000  108.        
    C0000009  OBJROW     -694.         R0000000  615.        
RHS
    RHS       R0000000  14156.      
BOUNDS
 BV BOUND     C0000000  1.          
 BV BOUND     C0000001  1.          
 BV BOUND     C0000002  1.          
 BV BOUND     C0000003  1.          
 BV BOUND     C0000004  1.          
 BV BOUND     C0000005  1.          
 BV BOUND     C0000006  1.          
 BV BOUND     C0000007  1.          
 BV BOUND     C0000008  1.          
 BV BOUND     C0000009  1.          
ENDATA
